p cnf 1308
-18 -410
-19 -413
-20 -416
-21 -419
-22 -422
-23 -425
-24 -428
-25 -431
-26 -434
-27 -437
-28 -440
-29 -443
-30 -446
-31 -449
-32 -452
-33 -455
-34 -458
-35 459
-36 460
-37 461
-38 462
-39 463
-40 464
-41 465
-42 466
-43 467
-44 468
-45 469
-46 470
-47 -19
-47 -20
19 20 47
-48 -21
-48 -22
21 22 48
-49 -23
-49 -24
23 24 49
-50 -25
-50 -26
25 26 50
-51 -27
-51 -28
27 28 51
-52 -29
-52 -30
29 30 52
-53 -31
-53 -32
31 32 53
-54 -33
-54 -34
33 34 54
-55 -35
-55 -36
35 36 55
-56 -37
-56 -38
37 38 56
-57 -39
-57 -40
39 40 57
-58 -41
-58 -42
41 42 58
-59 -43
-59 -44
43 44 59
-60 -45
-60 -46
45 46 60
-61 47
-61 48
-47 -48 61
-62 49
-62 50
-49 -50 62
-63 51
-63 52
-51 -52 63
-64 53
-64 54
-53 -54 64
-65 55
-65 56
-55 -56 65
-66 57
-66 58
-57 -58 66
-67 59
-67 60
-59 -60 67
-68 61
-68 62
-61 -62 68
-69 63
-69 64
-63 -64 69
-70 65
-70 66
-65 -66 70
-71 68
-71 69
-68 -69 71
-72 67
-72 70
-67 -70 72
-73 71
-73 72
-71 -72 73
-74 -18
-74 19
18 -19 74
-75 18
-75 -19
-18 19 75
-76 -74
-76 -75
74 75 76
-77 18
-77 19
-18 -19 77
-78 -18
-78 -76
18 76 78
-79 18
-79 76
-18 -76 79
-80 -78
-80 -79
78 79 80
-81 18
-81 -76
-18 76 81
-82 -77
-82 -81
77 81 82
-83 -19
-83 20
19 -20 83
-84 19
-84 -20
-19 20 84
-85 -83
-85 -84
83 84 85
-86 19
-86 20
-19 -20 86
-87 82
-87 -85
-82 85 87
-88 -82
-88 85
82 -85 88
-89 -87
-89 -88
87 88 89
-90 -82
-90 -85
82 85 90
-91 -86
-91 -90
86 90 91
-92 -20
-92 21
20 -21 92
-93 20
-93 -21
-20 21 93
-94 -92
-94 -93
92 93 94
-95 20
-95 21
-20 -21 95
-96 91
-96 -94
-91 94 96
-97 -91
-97 94
91 -94 97
-98 -96
-98 -97
96 97 98
-99 -91
-99 -94
91 94 99
-100 -95
-100 -99
95 99 100
-101 -21
-101 22
21 -22 101
-102 21
-102 -22
-21 22 102
-103 -101
-103 -102
101 102 103
-104 21
-104 22
-21 -22 104
-105 100
-105 -103
-100 103 105
-106 -100
-106 103
100 -103 106
-107 -105
-107 -106
105 106 107
-108 -100
-108 -103
100 103 108
-109 -104
-109 -108
104 108 109
-110 -22
-110 23
22 -23 110
-111 22
-111 -23
-22 23 111
-112 -110
-112 -111
110 111 112
-113 22
-113 23
-22 -23 113
-114 109
-114 -112
-109 112 114
-115 -109
-115 112
109 -112 115
-116 -114
-116 -115
114 115 116
-117 -109
-117 -112
109 112 117
-118 -113
-118 -117
113 117 118
-119 -23
-119 24
23 -24 119
-120 23
-120 -24
-23 24 120
-121 -119
-121 -120
119 120 121
-122 23
-122 24
-23 -24 122
-123 118
-123 -121
-118 121 123
-124 -118
-124 121
118 -121 124
-125 -123
-125 -124
123 124 125
-126 -118
-126 -121
118 121 126
-127 -122
-127 -126
122 126 127
-128 -24
-128 25
24 -25 128
-129 24
-129 -25
-24 25 129
-130 -128
-130 -129
128 129 130
-131 24
-131 25
-24 -25 131
-132 127
-132 -130
-127 130 132
-133 -127
-133 130
127 -130 133
-134 -132
-134 -133
132 133 134
-135 -127
-135 -130
127 130 135
-136 -131
-136 -135
131 135 136
-137 -25
-137 26
25 -26 137
-138 25
-138 -26
-25 26 138
-139 -137
-139 -138
137 138 139
-140 25
-140 26
-25 -26 140
-141 136
-141 -139
-136 139 141
-142 -136
-142 139
136 -139 142
-143 -141
-143 -142
141 142 143
-144 -136
-144 -139
136 139 144
-145 -140
-145 -144
140 144 145
-146 -26
-146 27
26 -27 146
-147 26
-147 -27
-26 27 147
-148 -146
-148 -147
146 147 148
-149 26
-149 27
-26 -27 149
-150 145
-150 -148
-145 148 150
-151 -145
-151 148
145 -148 151
-152 -150
-152 -151
150 151 152
-153 -145
-153 -148
145 148 153
-154 -149
-154 -153
149 153 154
-155 -27
-155 28
27 -28 155
-156 27
-156 -28
-27 28 156
-157 -155
-157 -156
155 156 157
-158 27
-158 28
-27 -28 158
-159 154
-159 -157
-154 157 159
-160 -154
-160 157
154 -157 160
-161 -159
-161 -160
159 160 161
-162 -154
-162 -157
154 157 162
-163 -158
-163 -162
158 162 163
-164 -28
-164 29
28 -29 164
-165 28
-165 -29
-28 29 165
-166 -164
-166 -165
164 165 166
-167 28
-167 29
-28 -29 167
-168 163
-168 -166
-163 166 168
-169 -163
-169 166
163 -166 169
-170 -168
-170 -169
168 169 170
-171 -163
-171 -166
163 166 171
-172 -167
-172 -171
167 171 172
-173 -29
-173 30
29 -30 173
-174 29
-174 -30
-29 30 174
-175 -173
-175 -174
173 174 175
-176 29
-176 30
-29 -30 176
-177 172
-177 -175
-172 175 177
-178 -172
-178 175
172 -175 178
-179 -177
-179 -178
177 178 179
-180 -172
-180 -175
172 175 180
-181 -176
-181 -180
176 180 181
-182 -30
-182 31
30 -31 182
-183 30
-183 -31
-30 31 183
-184 -182
-184 -183
182 183 184
-185 30
-185 31
-30 -31 185
-186 181
-186 -184
-181 184 186
-187 -181
-187 184
181 -184 187
-188 -186
-188 -187
186 187 188
-189 -181
-189 -184
181 184 189
-190 -185
-190 -189
185 189 190
-191 -31
-191 32
31 -32 191
-192 31
-192 -32
-31 32 192
-193 -191
-193 -192
191 192 193
-194 31
-194 32
-31 -32 194
-195 190
-195 -193
-190 193 195
-196 -190
-196 193
190 -193 196
-197 -195
-197 -196
195 196 197
-198 -190
-198 -193
190 193 198
-199 -194
-199 -198
194 198 199
-200 -32
-200 33
32 -33 200
-201 32
-201 -33
-32 33 201
-202 -200
-202 -201
200 201 202
-203 32
-203 33
-32 -33 203
-204 199
-204 -202
-199 202 204
-205 -199
-205 202
199 -202 205
-206 -204
-206 -205
204 205 206
-207 -199
-207 -202
199 202 207
-208 -203
-208 -207
203 207 208
-209 -33
-209 34
33 -34 209
-210 33
-210 -34
-33 34 210
-211 -209
-211 -210
209 210 211
-212 33
-212 34
-33 -34 212
-213 208
-213 -211
-208 211 213
-214 -208
-214 211
208 -211 214
-215 -213
-215 -214
213 214 215
-216 -208
-216 -211
208 211 216
-217 -212
-217 -216
212 216 217
-218 -34
-218 35
34 -35 218
-219 34
-219 -35
-34 35 219
-220 -218
-220 -219
218 219 220
-221 34
-221 35
-34 -35 221
-222 217
-222 -220
-217 220 222
-223 -217
-223 220
217 -220 223
-224 -222
-224 -223
222 223 224
-225 -217
-225 -220
217 220 225
-226 -221
-226 -225
221 225 226
-227 -35
-227 36
35 -36 227
-228 35
-228 -36
-35 36 228
-229 -227
-229 -228
227 228 229
-230 35
-230 36
-35 -36 230
-231 226
-231 -229
-226 229 231
-232 -226
-232 229
226 -229 232
-233 -231
-233 -232
231 232 233
-234 -226
-234 -229
226 229 234
-235 -230
-235 -234
230 234 235
-236 -36
-236 37
36 -37 236
-237 36
-237 -37
-36 37 237
-238 -236
-238 -237
236 237 238
-239 36
-239 37
-36 -37 239
-240 235
-240 -238
-235 238 240
-241 -235
-241 238
235 -238 241
-242 -240
-242 -241
240 241 242
-243 -235
-243 -238
235 238 243
-244 -239
-244 -243
239 243 244
-245 -37
-245 38
37 -38 245
-246 37
-246 -38
-37 38 246
-247 -245
-247 -246
245 246 247
-248 37
-248 38
-37 -38 248
-249 244
-249 -247
-244 247 249
-250 -244
-250 247
244 -247 250
-251 -249
-251 -250
249 250 251
-252 -244
-252 -247
244 247 252
-253 -248
-253 -252
248 252 253
-254 -38
-254 39
38 -39 254
-255 38
-255 -39
-38 39 255
-256 -254
-256 -255
254 255 256
-257 38
-257 39
-38 -39 257
-258 253
-258 -256
-253 256 258
-259 -253
-259 256
253 -256 259
-260 -258
-260 -259
258 259 260
-261 -253
-261 -256
253 256 261
-262 -257
-262 -261
257 261 262
-263 -39
-263 40
39 -40 263
-264 39
-264 -40
-39 40 264
-265 -263
-265 -264
263 264 265
-266 39
-266 40
-39 -40 266
-267 262
-267 -265
-262 265 267
-268 -262
-268 265
262 -265 268
-269 -267
-269 -268
267 268 269
-270 -262
-270 -265
262 265 270
-271 -266
-271 -270
266 270 271
-272 -40
-272 41
40 -41 272
-273 40
-273 -41
-40 41 273
-274 -272
-274 -273
272 273 274
-275 40
-275 41
-40 -41 275
-276 271
-276 -274
-271 274 276
-277 -271
-277 274
271 -274 277
-278 -276
-278 -277
276 277 278
-279 -271
-279 -274
271 274 279
-280 -275
-280 -279
275 279 280
-281 -41
-281 42
41 -42 281
-282 41
-282 -42
-41 42 282
-283 -281
-283 -282
281 282 283
-284 41
-284 42
-41 -42 284
-285 280
-285 -283
-280 283 285
-286 -280
-286 283
280 -283 286
-287 -285
-287 -286
285 286 287
-288 -280
-288 -283
280 283 288
-289 -284
-289 -288
284 288 289
-290 -42
-290 43
42 -43 290
-291 42
-291 -43
-42 43 291
-292 -290
-292 -291
290 291 292
-293 42
-293 43
-42 -43 293
-294 289
-294 -292
-289 292 294
-295 -289
-295 292
289 -292 295
-296 -294
-296 -295
294 295 296
-297 -289
-297 -292
289 292 297
-298 -293
-298 -297
293 297 298
-299 -43
-299 44
43 -44 299
-300 43
-300 -44
-43 44 300
-301 -299
-301 -300
299 300 301
-302 43
-302 44
-43 -44 302
-303 298
-303 -301
-298 301 303
-304 -298
-304 301
298 -301 304
-305 -303
-305 -304
303 304 305
-306 -298
-306 -301
298 301 306
-307 -302
-307 -306
302 306 307
-308 -44
-308 45
44 -45 308
-309 44
-309 -45
-44 45 309
-310 -308
-310 -309
308 309 310
-311 44
-311 45
-44 -45 311
-312 307
-312 -310
-307 310 312
-313 -307
-313 310
307 -310 313
-314 -312
-314 -313
312 313 314
-315 -307
-315 -310
307 310 315
-316 -311
-316 -315
311 315 316
-317 -45
-317 46
45 -46 317
-318 45
-318 -46
-45 46 318
-319 -317
-319 -318
317 318 319
-320 45
-320 46
-45 -46 320
-321 316
-321 -319
-316 319 321
-322 -316
-322 319
316 -319 322
-323 -321
-323 -322
321 322 323
-324 -316
-324 -319
316 319 324
-325 -320
-325 -324
320 324 325
-326 18
-326 -80
-18 80 326
-327 -18
-327 20
18 -20 327
-328 -326
-328 -327
326 327 328
-329 18
-329 -89
-18 89 329
-330 -18
-330 21
18 -21 330
-331 -329
-331 -330
329 330 331
-332 18
-332 -98
-18 98 332
-333 -18
-333 22
18 -22 333
-334 -332
-334 -333
332 333 334
-335 18
-335 -107
-18 107 335
-336 -18
-336 23
18 -23 336
-337 -335
-337 -336
335 336 337
-338 18
-338 -116
-18 116 338
-339 -18
-339 24
18 -24 339
-340 -338
-340 -339
338 339 340
-341 18
-341 -125
-18 125 341
-342 -18
-342 25
18 -25 342
-343 -341
-343 -342
341 342 343
-344 18
-344 -134
-18 134 344
-345 -18
-345 26
18 -26 345
-346 -344
-346 -345
344 345 346
-347 18
-347 -143
-18 143 347
-348 -18
-348 27
18 -27 348
-349 -347
-349 -348
347 348 349
-350 18
-350 -152
-18 152 350
-351 -18
-351 28
18 -28 351
-352 -350
-352 -351
350 351 352
-353 18
-353 -161
-18 161 353
-354 -18
-354 29
18 -29 354
-355 -353
-355 -354
353 354 355
-356 18
-356 -170
-18 170 356
-357 -18
-357 30
18 -30 357
-358 -356
-358 -357
356 357 358
-359 18
-359 -179
-18 179 359
-360 -18
-360 31
18 -31 360
-361 -359
-361 -360
359 360 361
-362 18
-362 -188
-18 188 362
-363 -18
-363 32
18 -32 363
-364 -362
-364 -363
362 363 364
-365 18
-365 -197
-18 197 365
-366 -18
-366 33
18 -33 366
-367 -365
-367 -366
365 366 367
-368 18
-368 -206
-18 206 368
-369 -18
-369 34
18 -34 369
-370 -368
-370 -369
368 369 370
-371 18
-371 -215
-18 215 371
-372 -18
-372 35
18 -35 372
-373 -371
-373 -372
371 372 373
-374 18
-374 -224
-18 224 374
-375 -18
-375 36
18 -36 375
-376 -374
-376 -375
374 375 376
-377 18
-377 -233
-18 233 377
-378 -18
-378 37
18 -37 378
-379 -377
-379 -378
377 378 379
-380 18
-380 -242
-18 242 380
-381 -18
-381 38
18 -38 381
-382 -380
-382 -381
380 381 382
-383 18
-383 -251
-18 251 383
-384 -18
-384 39
18 -39 384
-385 -383
-385 -384
383 384 385
-386 18
-386 -260
-18 260 386
-387 -18
-387 40
18 -40 387
-388 -386
-388 -387
386 387 388
-389 18
-389 -269
-18 269 389
-390 -18
-390 41
18 -41 390
-391 -389
-391 -390
389 390 391
-392 18
-392 -278
-18 278 392
-393 -18
-393 42
18 -42 393
-394 -392
-394 -393
392 393 394
-395 18
-395 -287
-18 287 395
-396 -18
-396 43
18 -43 396
-397 -395
-397 -396
395 396 397
-398 18
-398 -296
-18 296 398
-399 -18
-399 44
18 -44 399
-400 -398
-400 -399
398 399 400
-401 18
-401 -305
-18 305 401
-402 -18
-402 45
18 -45 402
-403 -401
-403 -402
401 402 403
-404 18
-404 -314
-18 314 404
-405 -18
-405 46
18 -46 405
-406 -404
-406 -405
404 405 406
-407 18
-407 -323
-18 323 407
-408 1
-408 73
-1 -73 408
-409 -73
-409 74
73 -74 409
-410 -408
-410 -409
408 409 410
-411 2
-411 73
-2 -73 411
-412 -73
-412 -328
73 328 412
-413 -411
-413 -412
411 412 413
-414 3
-414 73
-3 -73 414
-415 -73
-415 -331
73 331 415
-416 -414
-416 -415
414 415 416
-417 4
-417 73
-4 -73 417
-418 -73
-418 -334
73 334 418
-419 -417
-419 -418
417 418 419
-420 5
-420 73
-5 -73 420
-421 -73
-421 -337
73 337 421
-422 -420
-422 -421
420 421 422
-423 6
-423 73
-6 -73 423
-424 -73
-424 -340
73 340 424
-425 -423
-425 -424
423 424 425
-426 7
-426 73
-7 -73 426
-427 -73
-427 -343
73 343 427
-428 -426
-428 -427
426 427 428
-429 8
-429 73
-8 -73 429
-430 -73
-430 -346
73 346 430
-431 -429
-431 -430
429 430 431
-432 9
-432 73
-9 -73 432
-433 -73
-433 -349
73 349 433
-434 -432
-434 -433
432 433 434
-435 10
-435 73
-10 -73 435
-436 -73
-436 -352
73 352 436
-437 -435
-437 -436
435 436 437
-438 11
-438 73
-11 -73 438
-439 -73
-439 -355
73 355 439
-440 -438
-440 -439
438 439 440
-441 12
-441 73
-12 -73 441
-442 -73
-442 -358
73 358 442
-443 -441
-443 -442
441 442 443
-444 13
-444 73
-13 -73 444
-445 -73
-445 -361
73 361 445
-446 -444
-446 -445
444 445 446
-447 14
-447 73
-14 -73 447
-448 -73
-448 -364
73 364 448
-449 -447
-449 -448
447 448 449
-450 15
-450 73
-15 -73 450
-451 -73
-451 -367
73 367 451
-452 -450
-452 -451
450 451 452
-453 16
-453 73
-16 -73 453
-454 -73
-454 -370
73 370 454
-455 -453
-455 -454
453 454 455
-456 17
-456 73
-17 -73 456
-457 -73
-457 -373
73 373 457
-458 -456
-458 -457
456 457 458
-459 -73
-459 -376
73 376 459
-460 -73
-460 -379
73 379 460
-461 -73
-461 -382
73 382 461
-462 -73
-462 -385
73 385 462
-463 -73
-463 -388
73 388 463
-464 -73
-464 -391
73 391 464
-465 -73
-465 -394
73 394 465
-466 -73
-466 -397
73 397 466
-467 -73
-467 -400
73 400 467
-468 -73
-468 -403
73 403 468
-469 -73
-469 -406
73 406 469
-470 -73
-470 407
73 -407 470
-471 -46
-471 325
46 -325 471
-472 18
-472 -471
-18 471 472
472
